data;


param FN:= 0;
param D:= 100;
param U_Original:=
         1         1       -6.754595e-01
         2         1       -1.925520e+00
         3         1       -7.679983e-01
         4         1       -7.423125e-01
         5         1       -1.977985e-01
         6         1        4.199061e-01
         7         1        1.235836e+00
         8         1        6.197783e-01
         9         1        7.066588e-01
        10         1       -1.950896e-01
        11         1        1.573185e+00
        12         1        8.682901e-01
        13         1       -6.701478e-01
        14         1       -1.300019e+00
        15         1        8.259495e-01
        16         1        4.552221e-01
        17         1        2.734151e-01
        18         1       -8.255552e-01
        19         1        7.301798e-01
        20         1        2.000302e-01
        21         1        1.252566e+00
        22         1        1.405119e+00
        23         1       -4.262665e-01
        24         1       -3.813090e-01
        25         1        3.399784e-01
        26         1       -9.722752e-01
        27         1        2.800405e-02
        28         1        6.512362e-01
        29         1       -8.013873e-01
        30         1        7.696100e-01
        31         1       -1.212551e+00
        32         1        4.238838e-01
        33         1        1.803770e-01
        34         1       -2.677448e+00
        35         1       -8.374085e-01
        36         1        3.558263e-01
        37         1       -9.835219e-01
        38         1        6.540331e-01
        39         1        1.023060e+00
        40         1       -5.117715e-01
        41         1        9.531762e-01
        42         1       -4.692459e-01
        43         1        2.708643e-01
        44         1       -1.643611e+00
        45         1       -4.945205e-01
        46         1        8.850452e-01
        47         1       -7.789902e-01
        48         1       -4.132079e-01
        49         1       -1.869897e-01
        50         1       -8.135512e-01
        51         1       -4.747542e-01
        52         1       -1.343897e-01
        53         1        7.213908e-01
        54         1        1.460698e+00
        55         1        1.448563e+00
        56         1        4.032456e-01
        57         1       -1.984689e+00
        58         1       -1.501325e+00
        59         1       -2.190260e+00
        60         1       -1.558403e+00
        61         1        2.174679e-01
        62         1        2.557019e-01
        63         1        6.786604e-02
        64         1        1.431579e-01
        65         1       -3.917467e-02
        66         1        7.899434e-01
        67         1       -6.051344e-01
        68         1        4.080791e-03
        69         1       -1.200541e+00
        70         1       -1.182588e+00
        71         1       -1.279436e+00
        72         1       -1.130685e+00
        73         1       -4.904457e-01
        74         1       -9.200653e-01
        75         1       -3.102326e-01
        76         1       -4.646024e-02
        77         1        5.699680e-01
        78         1       -1.674922e-01
        79         1        1.713752e-01
        80         1       -4.685178e-01
        81         1        3.106816e-01
        82         1       -3.508136e-01
        83         1       -1.891645e+00
        84         1        1.389492e+00
        85         1       -8.546713e-01
        86         1        4.182601e-02
        87         1        1.767136e+00
        88         1       -8.408803e-01
        89         1       -4.495564e-01
        90         1        7.945911e-01
        91         1       -6.501540e-01
        92         1       -9.774394e-01
        93         1       -1.253435e+00
        94         1       -1.644587e+00
        95         1        5.498895e-01
        96         1        3.139713e+00
        97         1       -1.827370e+00
        98         1       -8.197974e-02
        99         1        3.286629e-01
       100         1       -4.829610e-01
         1         2        1.086854e+00
         2         2        5.180500e-02
         3         2        4.445786e-01
         4         2        2.138833e-01
         5         2       -1.190448e+00
         6         2        5.296704e-01
         7         2       -2.891365e-01
         8         2        8.323726e-01
         9         2       -5.202160e-01
        10         2        1.138795e+00
        11         2       -5.464273e-01
        12         2       -1.879955e+00
        13         2       -8.520744e-01
        14         2        1.084859e+00
        15         2        1.052816e+00
        16         2       -6.198916e-01
        17         2        1.086561e+00
        18         2        4.466066e-01
        19         2        1.540849e+00
        20         2        6.857105e-01
        21         2        1.912148e+00
        22         2       -5.609609e-01
        23         2       -1.113146e+00
        24         2       -1.436887e+00
        25         2       -1.356046e+00
        26         2       -1.007412e+00
        27         2        4.244136e-01
        28         2       -2.219871e+00
        29         2       -2.122617e+00
        30         2        2.514626e-01
        31         2        6.878531e-01
        32         2       -7.486204e-01
        33         2       -5.159514e-02
        34         2        4.244703e-01
        35         2       -1.137669e-02
        36         2        6.743546e-01
        37         2        1.671888e+00
        38         2        3.669460e-01
        39         2       -3.729247e-01
        40         2        3.188831e-01
        41         2        4.901538e-01
        42         2        4.294460e-01
        43         2       -1.862528e+00
        44         2       -6.895498e-03
        45         2        1.084520e+00
        46         2       -2.401252e-01
        47         2       -2.129449e-01
        48         2       -5.774802e-01
        49         2       -3.706539e-01
        50         2        1.007620e+00
        51         2       -7.246521e-01
        52         2       -4.698507e-01
        53         2        1.761594e+00
        54         2        1.991477e-01
        55         2       -8.373910e-01
        56         2        1.696656e+00
        57         2       -1.045070e+00
        58         2        1.472046e+00
        59         2        1.695301e+00
        60         2       -3.684459e-01
        61         2       -1.155676e-01
        62         2       -8.069886e-01
        63         2       -5.999378e-01
        64         2       -2.274976e+00
        65         2       -1.187516e+00
        66         2        5.048456e-01
        67         2        7.374034e-01
        68         2        1.488812e+00
        69         2       -1.292550e-01
        70         2       -1.149371e+00
        71         2        9.755329e-01
        72         2       -5.078346e-02
        73         2       -7.450107e-01
        74         2       -1.827361e+00
        75         2        5.013807e-02
        76         2        8.856571e-01
        77         2       -2.697555e+00
        78         2        3.548004e-01
        79         2       -3.756749e-01
        80         2        1.741512e-01
        81         2       -4.850287e-01
        82         2       -1.963936e+00
        83         2        1.104685e+00
        84         2        4.635134e-01
        85         2        8.440053e-01
        86         2        1.738892e+00
        87         2       -7.463313e-01
        88         2        1.279094e+00
        89         2       -2.006711e+00
        90         2       -1.604003e+00
        91         2        5.350643e-01
        92         2       -7.841330e-01
        93         2        1.197042e+00
        94         2        4.584511e-02
        95         2       -8.532717e-01
        96         2        1.585776e-01
        97         2        2.168991e-01
        98         2       -9.686413e-01
        99         2       -5.307449e-01
       100         2       -8.797411e-02
         1         3       -9.311718e-01
         2         3       -3.486848e-01
         3         3       -5.033414e-01
         4         3        1.709598e+00
         5         3       -9.538896e-01
         6         3       -5.879741e-01
         7         3        2.327692e+00
         8         3        1.832967e-01
         9         3        6.601341e-01
        10         3        4.312938e-01
        11         3       -4.363577e-01
        12         3        1.027191e+00
        13         3       -4.003326e-01
        14         3       -2.192789e+00
        15         3        8.271023e-01
        16         3       -1.776353e-01
        17         3       -1.117555e+00
        18         3        1.010340e+00
        19         3        3.965251e-01
        20         3       -7.642516e-01
        21         3       -1.033729e+00
        22         3       -1.218628e+00
        23         3        7.183010e-03
        24         3        1.391880e+00
        25         3        7.236492e-01
        26         3       -8.080070e-01
        27         3        2.564236e-02
        28         3        1.316254e+00
        29         3        2.886379e-01
        30         3       -1.324266e+00
        31         3       -1.038727e+00
        32         3        6.506833e-01
        33         3        1.271615e-01
        34         3        1.504702e+00
        35         3        2.060053e-01
        36         3        2.425105e-01
        37         3        2.306260e+00
        38         3        1.706273e+00
        39         3       -1.625445e+00
        40         3       -5.086195e-01
        41         3       -8.296288e-01
        42         3       -4.112398e-01
        43         3        1.519442e+00
        44         3       -1.350378e+00
        45         3        6.826400e-01
        46         3       -1.819038e-01
        47         3        8.880174e-02
        48         3        5.666186e-01
        49         3        8.905004e-01
        50         3       -3.616944e-02
        51         3        1.140241e+00
        52         3        5.887561e-02
        53         3       -1.087652e-02
        54         3        9.974940e-01
        55         3        5.830496e-01
        56         3        1.604427e-01
        57         3        1.457971e-01
        58         3        2.452768e-02
        59         3       -7.306474e-01
        60         3       -1.357572e+00
        61         3        6.716399e-01
        62         3       -3.987891e-01
        63         3        1.573127e+00
        64         3       -1.459595e-01
        65         3        1.228066e+00
        66         3        2.462873e+00
        67         3       -8.815388e-01
        68         3       -1.616830e+00
        69         3        8.496528e-01
        70         3        1.382383e+00
        71         3       -3.544453e-01
        72         3       -1.088342e+00
        73         3        8.175934e-01
        74         3        7.587874e-01
        75         3       -5.328260e-01
        76         3       -1.099379e+00
        77         3        1.704795e+00
        78         3        6.935825e-01
        79         3       -8.644786e-01
        80         3        8.883220e-01
        81         3        3.694873e-01
        82         3       -2.016389e+00
        83         3       -9.409565e-02
        84         3        1.331827e-01
        85         3        4.947931e-01
        86         3       -1.354821e+00
        87         3        2.968281e-01
        88         3       -3.601970e-01
        89         3        1.034860e+00
        90         3       -1.181379e-01
        91         3       -1.468444e+00
        92         3       -9.951918e-01
        93         3        1.140119e+00
        94         3        8.319458e-01
        95         3       -2.885916e+00
        96         3       -7.056741e-02
        97         3       -1.028261e+00
        98         3        9.135860e-01
        99         3       -1.399245e-01
       100         3        1.329552e+00
         1         4       -2.071055e-01
         2         4        5.487955e-01
         3         4        4.589987e-01
         4         4       -8.745038e-01
         5         4       -2.244051e-01
         6         4        3.926931e-01
         7         4       -6.939933e-02
         8         4       -1.305112e+00
         9         4       -1.525413e+00
        10         4       -1.128791e+00
        11         4        1.611877e+00
        12         4        1.036006e+00
        13         4       -1.414959e+00
        14         4       -2.984157e-01
        15         4       -3.288426e-01
        16         4       -5.417611e-01
        17         4        3.631268e-01
        18         4        9.928975e-01
        19         4       -1.356786e-01
        20         4       -9.853014e-02
        21         4        8.001139e-01
        22         4       -7.268813e-02
        23         4       -1.105286e+00
        24         4       -1.944389e+00
        25         4        2.078629e-01
        26         4       -1.688151e+00
        27         4        1.127173e-02
        28         4       -7.026301e-02
        29         4        5.945604e-02
        30         4        3.643278e-01
        31         4        1.002472e+00
        32         4       -5.201170e-02
        33         4       -1.132134e+00
        34         4       -1.543506e+00
        35         4        6.318839e-01
        36         4       -1.854739e-01
        37         4       -8.636195e-01
        38         4        1.115053e-01
        39         4        9.104083e-01
        40         4        2.934253e-01
        41         4       -4.128304e-01
        42         4        1.460540e+00
        43         4        1.098729e-01
        44         4       -4.444474e-01
        45         4       -1.042532e+00
        46         4       -1.144713e+00
        47         4        3.155359e-01
        48         4       -1.498027e+00
        49         4       -1.429496e+00
        50         4       -1.554418e+00
        51         4        2.782378e-01
        52         4        6.037114e-01
        53         4        4.051545e-01
        54         4        1.442987e+00
        55         4        1.793292e+00
        56         4       -3.099018e-01
        57         4       -6.444757e-01
        58         4        1.602807e-01
        59         4       -1.113589e+00
        60         4       -1.431392e+00
        61         4       -4.733714e-01
        62         4        2.481770e-01
        63         4        9.829580e-01
        64         4       -1.264702e+00
        65         4       -3.216328e-01
        66         4        1.182530e+00
        67         4       -8.213924e-01
        68         4        1.181937e-01
        69         4        3.116034e-01
        70         4       -3.647535e-01
        71         4       -1.596314e+00
        72         4        1.768205e+00
        73         4       -1.279323e+00
        74         4        1.308181e+00
        75         4        4.099222e-01
        76         4       -2.922770e-01
        77         4        1.006751e+00
        78         4       -7.721889e-02
        79         4        1.677588e+00
        80         4       -1.604256e-01
        81         4        1.630132e+00
        82         4       -5.686750e-01
        83         4        5.588532e-01
        84         4        1.190184e+00
        85         4        5.503642e-01
        86         4        7.504180e-01
        87         4        1.385742e+00
        88         4        2.681207e+00
        89         4       -9.099556e-01
        90         4       -5.063104e-01
        91         4       -9.207858e-01
        92         4        6.858838e-01
        93         4        7.833432e-01
        94         4       -6.973341e-01
        95         4        6.545282e-01
        96         4       -6.773988e-01
        97         4        9.496033e-01
        98         4       -4.557606e-01
        99         4        1.206571e+00
       100         4       -7.219405e-01
         1         5        3.526773e-01
         2         5       -1.751837e-01
         3         5       -2.454382e-01
         4         5        5.146647e-01
         5         5       -1.549299e+00
         6         5        9.918535e-01
         7         5        4.922915e-01
         8         5        2.318507e-01
         9         5       -3.194625e-02
        10         5       -5.500910e-01
        11         5        6.082496e-01
        12         5        4.809245e-01
        13         5       -2.223412e-01
        14         5        1.038963e+00
        15         5        6.166354e-01
        16         5       -1.324219e+00
        17         5       -1.947945e+00
        18         5       -3.232394e-01
        19         5        3.965263e-01
        20         5       -5.628349e-01
        21         5       -8.341728e-01
        22         5       -1.225957e-01
        23         5        1.634101e-01
        24         5        3.228883e-01
        25         5       -9.371010e-01
        26         5        7.863474e-02
        27         5        2.288957e+00
        28         5        2.664893e-01
        29         5        4.258578e-01
        30         5        2.141562e-01
        31         5        2.540854e-01
        32         5        4.693001e-01
        33         5       -2.559611e-01
        34         5        5.294040e-01
        35         5       -1.415497e+00
        36         5        1.556496e+00
        37         5       -3.179722e-01
        38         5       -8.233534e-01
        39         5        1.096295e+00
        40         5        2.421062e-03
        41         5        4.469895e-02
        42         5       -6.096656e-02
        43         5       -2.050852e-01
        44         5        8.876381e-01
        45         5       -7.228909e-01
        46         5        8.307350e-01
        47         5       -5.265852e-01
        48         5        9.760828e-01
        49         5       -3.249165e-01
        50         5        1.598882e+00
        51         5        7.925841e-02
        52         5       -1.166107e-01
        53         5       -1.313383e+00
        54         5       -6.648155e-02
        55         5       -2.068937e+00
        56         5        1.328401e-01
        57         5       -7.685673e-01
        58         5        1.005754e-01
        59         5       -9.095379e-01
        60         5        3.748640e-01
        61         5       -1.213407e-01
        62         5       -4.924270e-01
        63         5       -1.591975e+00
        64         5        5.054075e-01
        65         5       -9.279952e-01
        66         5        3.127603e+00
        67         5       -1.322854e+00
        68         5        2.435469e+00
        69         5        2.778795e-01
        70         5        8.895412e-01
        71         5        2.152833e+00
        72         5        8.594273e-01
        73         5       -1.349924e-01
        74         5        4.820726e-01
        75         5       -2.863499e-01
        76         5        8.218683e-02
        77         5       -2.740404e-01
        78         5        5.758768e-01
        79         5       -3.176919e-01
        80         5        8.228925e-01
        81         5       -1.041418e+00
        82         5        1.012765e+00
        83         5       -1.119776e+00
        84         5        1.478189e+00
        85         5       -2.009173e+00
        86         5        5.263725e-01
        87         5       -8.305003e-01
        88         5        9.010077e-02
        89         5        7.484404e-01
        90         5       -5.308047e-01
        91         5        1.169851e+00
        92         5        6.809294e-01
        93         5       -7.953051e-01
        94         5       -7.094601e-01
        95         5       -1.957079e+00
        96         5       -5.628174e-01
        97         5       -1.653772e+00
        98         5        2.658670e-01
        99         5        1.501206e+00
       100         5        4.635705e-01
;
param X_Original:=
    1       -1.139114e+00
    2        8.815018e-01
    3       -5.155533e-01
    4        1.034090e+00
    5       -7.751015e-01
    6       -1.033946e+00
    7        1.716647e-01
    8       -1.701350e+00
    9        2.445308e+00
   10        2.389659e-01
   11       -3.448645e-01
   12        1.278428e+00
   13        3.997067e+00
   14        1.438809e+00
   15       -9.008327e-01
   16        1.447192e-01
   17       -3.360841e+00
   18        5.213023e-01
   19       -1.785802e+00
   20        2.826392e-01
   21        1.517445e-01
   22        9.598489e-01
   23       -1.137592e+00
   24        1.832082e-01
   25       -4.684002e-01
   26        5.188289e+00
   27        1.320303e+00
   28        7.516283e-01
   29        1.222691e+00
   30       -6.082434e-01
   31       -9.273301e-01
   32       -3.048783e-01
   33        1.726760e+00
   34       -1.347252e-01
   35       -2.358588e+00
   36        1.064243e+00
   37       -6.924664e-01
   38        8.513072e-01
   39       -1.696576e+00
   40        2.713787e-01
   41       -6.470104e-01
   42        3.629159e-01
   43       -1.546648e+00
   44       -1.313067e+00
   45       -9.423967e-01
   46       -4.936574e-01
   47       -1.926065e-01
   48       -1.351705e+00
   49        6.086690e-01
   50        3.891746e+00
   51        1.256056e+00
   52       -7.366629e-01
   53       -7.284281e-01
   54       -4.986866e-01
   55       -3.741486e-01
   56       -9.766212e-01
   57       -8.398935e-01
   58        6.532084e-01
   59        2.292033e+00
   60       -1.010638e+00
   61        1.061320e+00
   62       -3.183226e-01
   63        1.784259e+00
   64        2.683738e-01
   65       -3.144077e-01
   66        2.945823e-01
   67       -1.618296e+00
   68       -1.171624e-01
   69       -1.972096e+00
   70        1.311556e-01
   71       -8.592963e-01
   72       -4.023334e-01
   73        3.521470e+00
   74       -7.090256e-01
   75        6.498935e-01
   76        3.583306e-01
   77       -8.285120e-01
   78       -1.713743e+00
   79       -1.622523e+00
   80       -1.281191e+00
   81        7.659730e-01
   82       -3.344908e-02
   83        1.330227e-01
   84       -2.728943e-01
   85        5.449418e-01
   86        4.302816e-01
   87        1.342016e+00
   88        7.181202e-01
   89        4.614189e+00
   90       -2.505653e+00
   91        1.449677e+00
   92       -1.661880e+00
   93       -8.975636e-02
   94        2.134692e-01
   95       -2.393055e+00
   96       -1.216209e+00
   97       -1.292168e+00
   98        2.317135e+00
   99       -2.075662e-01
  100        1.170227e+00
;
param outliervec_original :=
    1    1
    2    1
    3    1
    4    1
    5    1
    6    0
    7    1
    8    1
    9    0
   10    1
   11    1
   12    1
   13    0
   14    1
   15    1
   16    0
   17    0
   18    1
   19    0
   20    1
   21    1
   22    1
   23    1
   24    1
   25    1
   26    0
   27    1
   28    1
   29    1
   30    1
   31    0
   32    1
   33    0
   34    1
   35    1
   36    1
   37    1
   38    1
   39    1
   40    1
   41    1
   42    1
   43    1
   44    1
   45    1
   46    1
   47    1
   48    1
   49    1
   50    0
   51    1
   52    1
   53    1
   54    1
   55    1
   56    1
   57    1
   58    1
   59    0
   60    1
   61    1
   62    0
   63    1
   64    1
   65    1
   66    1
   67    1
   68    1
   69    1
   70    1
   71    1
   72    1
   73    0
   74    1
   75    1
   76    1
   77    1
   78    1
   79    1
   80    1
   81    1
   82    1
   83    1
   84    1
   85    1
   86    1
   87    1
   88    1
   89    0
   90    1
   91    1
   92    1
   93    1
   94    1
   95    0
   96    1
   97    1
   98    1
   99    1
  100    1
;
param d:= 57;
param r:=5;
param p:=0.840000;
param M:=1000;
param U:=
         1         1       -1.925520e+00
         2         1       -7.679983e-01
         3         1       -7.423125e-01
         4         1       -1.977985e-01
         5         1        4.199061e-01
         6         1        1.235836e+00
         7         1        7.066588e-01
         8         1       -1.950896e-01
         9         1       -6.701478e-01
        10         1       -1.300019e+00
        11         1        8.259495e-01
        12         1        4.552221e-01
        13         1        2.734151e-01
        14         1        7.301798e-01
        15         1        2.000302e-01
        16         1        3.399784e-01
        17         1       -9.722752e-01
        18         1        2.800405e-02
        19         1        6.512362e-01
        20         1       -8.013873e-01
        21         1        7.696100e-01
        22         1       -1.212551e+00
        23         1        4.238838e-01
        24         1        1.803770e-01
        25         1       -8.374085e-01
        26         1        3.558263e-01
        27         1       -9.835219e-01
        28         1        1.023060e+00
        29         1       -5.117715e-01
        30         1        9.531762e-01
        31         1       -7.789902e-01
        32         1       -8.135512e-01
        33         1       -4.747542e-01
        34         1       -1.343897e-01
        35         1        4.032456e-01
        36         1       -1.501325e+00
        37         1       -2.190260e+00
        38         1        2.174679e-01
        39         1        2.557019e-01
        40         1       -3.917467e-02
        41         1        7.899434e-01
        42         1        4.080791e-03
        43         1       -1.130685e+00
        44         1       -4.904457e-01
        45         1       -9.200653e-01
        46         1       -3.102326e-01
        47         1       -4.646024e-02
        48         1        5.699680e-01
        49         1        1.713752e-01
        50         1       -4.495564e-01
        51         1       -6.501540e-01
        52         1        5.498895e-01
        53         1        3.139713e+00
        54         1       -1.827370e+00
        55         1       -8.197974e-02
        56         1        3.286629e-01
        57         1       -4.829610e-01
         1         2        5.180500e-02
         2         2        4.445786e-01
         3         2        2.138833e-01
         4         2       -1.190448e+00
         5         2        5.296704e-01
         6         2       -2.891365e-01
         7         2       -5.202160e-01
         8         2        1.138795e+00
         9         2       -8.520744e-01
        10         2        1.084859e+00
        11         2        1.052816e+00
        12         2       -6.198916e-01
        13         2        1.086561e+00
        14         2        1.540849e+00
        15         2        6.857105e-01
        16         2       -1.356046e+00
        17         2       -1.007412e+00
        18         2        4.244136e-01
        19         2       -2.219871e+00
        20         2       -2.122617e+00
        21         2        2.514626e-01
        22         2        6.878531e-01
        23         2       -7.486204e-01
        24         2       -5.159514e-02
        25         2       -1.137669e-02
        26         2        6.743546e-01
        27         2        1.671888e+00
        28         2       -3.729247e-01
        29         2        3.188831e-01
        30         2        4.901538e-01
        31         2       -2.129449e-01
        32         2        1.007620e+00
        33         2       -7.246521e-01
        34         2       -4.698507e-01
        35         2        1.696656e+00
        36         2        1.472046e+00
        37         2        1.695301e+00
        38         2       -1.155676e-01
        39         2       -8.069886e-01
        40         2       -1.187516e+00
        41         2        5.048456e-01
        42         2        1.488812e+00
        43         2       -5.078346e-02
        44         2       -7.450107e-01
        45         2       -1.827361e+00
        46         2        5.013807e-02
        47         2        8.856571e-01
        48         2       -2.697555e+00
        49         2       -3.756749e-01
        50         2       -2.006711e+00
        51         2        5.350643e-01
        52         2       -8.532717e-01
        53         2        1.585776e-01
        54         2        2.168991e-01
        55         2       -9.686413e-01
        56         2       -5.307449e-01
        57         2       -8.797411e-02
         1         3       -3.486848e-01
         2         3       -5.033414e-01
         3         3        1.709598e+00
         4         3       -9.538896e-01
         5         3       -5.879741e-01
         6         3        2.327692e+00
         7         3        6.601341e-01
         8         3        4.312938e-01
         9         3       -4.003326e-01
        10         3       -2.192789e+00
        11         3        8.271023e-01
        12         3       -1.776353e-01
        13         3       -1.117555e+00
        14         3        3.965251e-01
        15         3       -7.642516e-01
        16         3        7.236492e-01
        17         3       -8.080070e-01
        18         3        2.564236e-02
        19         3        1.316254e+00
        20         3        2.886379e-01
        21         3       -1.324266e+00
        22         3       -1.038727e+00
        23         3        6.506833e-01
        24         3        1.271615e-01
        25         3        2.060053e-01
        26         3        2.425105e-01
        27         3        2.306260e+00
        28         3       -1.625445e+00
        29         3       -5.086195e-01
        30         3       -8.296288e-01
        31         3        8.880174e-02
        32         3       -3.616944e-02
        33         3        1.140241e+00
        34         3        5.887561e-02
        35         3        1.604427e-01
        36         3        2.452768e-02
        37         3       -7.306474e-01
        38         3        6.716399e-01
        39         3       -3.987891e-01
        40         3        1.228066e+00
        41         3        2.462873e+00
        42         3       -1.616830e+00
        43         3       -1.088342e+00
        44         3        8.175934e-01
        45         3        7.587874e-01
        46         3       -5.328260e-01
        47         3       -1.099379e+00
        48         3        1.704795e+00
        49         3       -8.644786e-01
        50         3        1.034860e+00
        51         3       -1.468444e+00
        52         3       -2.885916e+00
        53         3       -7.056741e-02
        54         3       -1.028261e+00
        55         3        9.135860e-01
        56         3       -1.399245e-01
        57         3        1.329552e+00
         1         4        5.487955e-01
         2         4        4.589987e-01
         3         4       -8.745038e-01
         4         4       -2.244051e-01
         5         4        3.926931e-01
         6         4       -6.939933e-02
         7         4       -1.525413e+00
         8         4       -1.128791e+00
         9         4       -1.414959e+00
        10         4       -2.984157e-01
        11         4       -3.288426e-01
        12         4       -5.417611e-01
        13         4        3.631268e-01
        14         4       -1.356786e-01
        15         4       -9.853014e-02
        16         4        2.078629e-01
        17         4       -1.688151e+00
        18         4        1.127173e-02
        19         4       -7.026301e-02
        20         4        5.945604e-02
        21         4        3.643278e-01
        22         4        1.002472e+00
        23         4       -5.201170e-02
        24         4       -1.132134e+00
        25         4        6.318839e-01
        26         4       -1.854739e-01
        27         4       -8.636195e-01
        28         4        9.104083e-01
        29         4        2.934253e-01
        30         4       -4.128304e-01
        31         4        3.155359e-01
        32         4       -1.554418e+00
        33         4        2.782378e-01
        34         4        6.037114e-01
        35         4       -3.099018e-01
        36         4        1.602807e-01
        37         4       -1.113589e+00
        38         4       -4.733714e-01
        39         4        2.481770e-01
        40         4       -3.216328e-01
        41         4        1.182530e+00
        42         4        1.181937e-01
        43         4        1.768205e+00
        44         4       -1.279323e+00
        45         4        1.308181e+00
        46         4        4.099222e-01
        47         4       -2.922770e-01
        48         4        1.006751e+00
        49         4        1.677588e+00
        50         4       -9.099556e-01
        51         4       -9.207858e-01
        52         4        6.545282e-01
        53         4       -6.773988e-01
        54         4        9.496033e-01
        55         4       -4.557606e-01
        56         4        1.206571e+00
        57         4       -7.219405e-01
         1         5       -1.751837e-01
         2         5       -2.454382e-01
         3         5        5.146647e-01
         4         5       -1.549299e+00
         5         5        9.918535e-01
         6         5        4.922915e-01
         7         5       -3.194625e-02
         8         5       -5.500910e-01
         9         5       -2.223412e-01
        10         5        1.038963e+00
        11         5        6.166354e-01
        12         5       -1.324219e+00
        13         5       -1.947945e+00
        14         5        3.965263e-01
        15         5       -5.628349e-01
        16         5       -9.371010e-01
        17         5        7.863474e-02
        18         5        2.288957e+00
        19         5        2.664893e-01
        20         5        4.258578e-01
        21         5        2.141562e-01
        22         5        2.540854e-01
        23         5        4.693001e-01
        24         5       -2.559611e-01
        25         5       -1.415497e+00
        26         5        1.556496e+00
        27         5       -3.179722e-01
        28         5        1.096295e+00
        29         5        2.421062e-03
        30         5        4.469895e-02
        31         5       -5.265852e-01
        32         5        1.598882e+00
        33         5        7.925841e-02
        34         5       -1.166107e-01
        35         5        1.328401e-01
        36         5        1.005754e-01
        37         5       -9.095379e-01
        38         5       -1.213407e-01
        39         5       -4.924270e-01
        40         5       -9.279952e-01
        41         5        3.127603e+00
        42         5        2.435469e+00
        43         5        8.594273e-01
        44         5       -1.349924e-01
        45         5        4.820726e-01
        46         5       -2.863499e-01
        47         5        8.218683e-02
        48         5       -2.740404e-01
        49         5       -3.176919e-01
        50         5        7.484404e-01
        51         5        1.169851e+00
        52         5       -1.957079e+00
        53         5       -5.628174e-01
        54         5       -1.653772e+00
        55         5        2.658670e-01
        56         5        1.501206e+00
        57         5        4.635705e-01
;

param theta:=
    1       -1.150119e+00
    2       -9.541139e-01
    3        1.648563e-02
    4       -1.817641e+00
    5        6.833970e-01
;
param X_true:=
    1        1.042167e+00
    2       -5.512143e-01
    3        2.619117e+00
    4        6.966907e-01
    5       -1.033946e+00
    6       -6.445415e-01
    7        2.445308e+00
    8        8.207526e-01
    9        3.997067e+00
   10        1.676385e+00
   11       -9.216865e-01
   12        1.447192e-01
   13       -3.360841e+00
   14       -1.785802e+00
   15       -1.102451e+00
   16       -1.034958e-01
   17        5.188289e+00
   18        1.107054e+00
   19        1.700541e+00
   20        3.134627e+00
   21       -1.662762e+00
   22       -9.273301e-01
   23        6.527363e-01
   24        1.726760e+00
   25       -1.138515e+00
   26        3.521744e-01
   27        9.264643e-01
   28       -1.753214e+00
   29       -2.557252e-01
   30       -7.966805e-01
   31        1.671709e-01
   32        3.891746e+00
   33        8.046503e-01
   34       -5.731963e-01
   35       -1.425866e+00
   36        1.000058e-01
   37        2.292033e+00
   38        6.487186e-01
   39       -3.183226e-01
   40        1.148750e+00
   41       -1.361626e+00
   42       -2.285633e-03
   43       -1.295700e+00
   44        3.521470e+00
   45        7.658480e-01
   46       -6.405993e-01
   47       -2.222860e-01
   48       -7.084134e-02
   49       -3.119280e+00
   50        4.614189e+00
   51        2.686165e+00
   52       -2.393055e+00
   53       -2.916866e+00
   54       -9.784267e-01
   55        2.043644e+00
   56       -1.041110e+00
   57        2.290350e+00
;
param X:=
    1        8.815018e-01
    2       -5.155533e-01
    3        1.034090e+00
    4       -7.751015e-01
    5       -1.033946e+00
    6        1.716647e-01
    7        2.445308e+00
    8        2.389659e-01
    9        3.997067e+00
   10        1.438809e+00
   11       -9.008327e-01
   12        1.447192e-01
   13       -3.360841e+00
   14       -1.785802e+00
   15        2.826392e-01
   16       -4.684002e-01
   17        5.188289e+00
   18        1.320303e+00
   19        7.516283e-01
   20        1.222691e+00
   21       -6.082434e-01
   22       -9.273301e-01
   23       -3.048783e-01
   24        1.726760e+00
   25       -2.358588e+00
   26        1.064243e+00
   27       -6.924664e-01
   28       -1.696576e+00
   29        2.713787e-01
   30       -6.470104e-01
   31       -1.926065e-01
   32        3.891746e+00
   33        1.256056e+00
   34       -7.366629e-01
   35       -9.766212e-01
   36        6.532084e-01
   37        2.292033e+00
   38        1.061320e+00
   39       -3.183226e-01
   40       -3.144077e-01
   41        2.945823e-01
   42       -1.171624e-01
   43       -4.023334e-01
   44        3.521470e+00
   45       -7.090256e-01
   46        6.498935e-01
   47        3.583306e-01
   48       -8.285120e-01
   49       -1.622523e+00
   50        4.614189e+00
   51        1.449677e+00
   52       -2.393055e+00
   53       -1.216209e+00
   54       -1.292168e+00
   55        2.317135e+00
   56       -2.075662e-01
   57        1.170227e+00
;
param outliervec:=
    1    1
    2    1
    3    1
    4    1
    5    0
    6    1
    7    0
    8    1
    9    0
   10    1
   11    1
   12    0
   13    0
   14    0
   15    1
   16    1
   17    0
   18    1
   19    1
   20    1
   21    1
   22    0
   23    1
   24    0
   25    1
   26    1
   27    1
   28    1
   29    1
   30    1
   31    1
   32    0
   33    1
   34    1
   35    1
   36    1
   37    0
   38    1
   39    0
   40    1
   41    1
   42    1
   43    1
   44    0
   45    1
   46    1
   47    1
   48    1
   49    1
   50    0
   51    1
   52    0
   53    1
   54    1
   55    1
   56    1
   57    1
; 
param greedy_time :=         2.291320e-01
;